50
    1     5     5
    2     6     6
    3    46    46
    4    42    42
    5    46    46
    6    36    36
    7    27    27
    8    32    32
    9     8     8
   10    17    17
   11    15    15
   12    41    41
   13    31    31
   14    19    19
   15    45    45
   16    15    15
   17    43    43
   18    12    12
   19    22    22
   20    42    42
   21    45    45
   22    41    41
   23    29    29
   24     9     9
   25    46    46
   26    41    41
   27     6     6
   28    50    50
   29    28    28
   30    41    41
   31    28    28
   32    44    44
   33    45    45
   34    24    24
   35    38    38
   36    34    34
   37    11    11
   38    32    32
   39    40    40
   40    39    39
   41    27    27
   42    39    39
   43    11    11
   44    35    35
   45     6     6
   46    42    42
   47    14    14
   48     8     8
   49     6     6
   50    35    35
1203
